Function: get_partitions took 2.0742416381835938e-05 seconds
Function: map_flows_partitions took 3.5762786865234375e-06 seconds
Building model with:
4 devices, 3 partitions and 1 flows
Using license file /home/anup/gurobi.lic
Academic license - for non-commercial use only
Function: MIP.add_frac_mem_var took 0.00030350685119628906 seconds
Function: MIP.add_coverage_constraints took 0.00020742416381835938 seconds
Function: MIP.add_accuracy_constraints took 0.0002837181091308594 seconds
Function: MIP.add_capacity_constraints took 0.0004911422729492188 seconds
Changed value of parameter TimeLimit to 120.0
   Prev: inf  Min: 0.0  Max: inf  Default: inf
--------------------------------------------------
Starting model update
Model update took: 7.987022399902344e-05 s
--------------------------------------------------
Starting model optimize
Gurobi Optimizer version 9.0.0 build v9.0.0rc2 (linux64)
Optimize a model with 24 rows, 35 columns and 73 nonzeros
Model fingerprint: 0x3e1e322a
Model has 2 general constraints
Variable types: 23 continuous, 12 integer (12 binary)
Coefficient statistics:
  Matrix range     [1e+00, 3e+04]
  Objective range  [1e+00, 1e+00]
  Bounds range     [1e+00, 3e+04]
  RHS range        [1e+00, 1e+00]

---------------------------------------------------------------------------
Multi-objectives: starting optimization with 4 objectives ... 
---------------------------------------------------------------------------

Multi-objectives: applying initial presolve ...
---------------------------------------------------------------------------

Presolve removed 13 rows and 15 columns
Presolve time: 0.00s
Presolved: 11 rows and 20 columns
---------------------------------------------------------------------------

Multi-objectives: optimize objective 1 (tot_mem_CPU) ...
---------------------------------------------------------------------------

Presolve removed 3 rows and 3 columns
Presolve time: 0.00s
Presolved: 8 rows, 17 columns, 30 nonzeros
Presolved model has 2 SOS constraint(s)
Variable types: 4 continuous, 13 integer (13 binary)
Found heuristic solution: objective 25976.601562
Found heuristic solution: objective 25908.632813

Root relaxation: objective 2.548390e+04, 6 iterations, 0.00 seconds

    Nodes    |    Current Node    |     Objective Bounds      |     Work
 Expl Unexpl |  Obj  Depth IntInf | Incumbent    BestBd   Gap | It/Node Time

     0     0 25483.8984    0    1 25908.6328 25483.8984  1.64%     -    0s
H    0     0                    25483.898438 25483.8984  0.00%     -    0s
     0     0 25483.8984    0    1 25483.8984 25483.8984  0.00%     -    0s

Explored 1 nodes (6 simplex iterations) in 0.00 seconds
Thread count was 8 (of 8 available processors)

Solution count 3: 25483.9 25908.6 25976.6 

Optimal solution found (tolerance 1.00e-04)
Best objective 2.548389843750e+04, best bound 2.548389843750e+04, gap 0.0000%
---------------------------------------------------------------------------

Multi-objectives: optimize objective 2 (CPU_mem_load) ...
---------------------------------------------------------------------------


Loaded user MIP start with objective 25483.9

Presolve removed 7 rows and 13 columns
Presolve time: 0.00s
Presolved: 5 rows, 7 columns, 14 nonzeros
Variable types: 2 continuous, 5 integer (5 binary)

Explored 0 nodes (0 simplex iterations) in 0.00 seconds
Thread count was 8 (of 8 available processors)

Solution count 1: 25483.9 

Optimal solution found (tolerance 1.00e-04)
Best objective 2.548389843750e+04, best bound 2.548389843750e+04, gap 0.0000%
---------------------------------------------------------------------------

Multi-objectives: optimize objective 3 (tot_mem_P4) ...
---------------------------------------------------------------------------


Loaded user MIP start with objective 492.703

Presolve removed 8 rows and 13 columns
Presolve time: 0.00s
Presolved: 5 rows, 7 columns, 14 nonzeros
Variable types: 2 continuous, 5 integer (5 binary)

Root relaxation: cutoff, 1 iterations, 0.00 seconds

    Nodes    |    Current Node    |     Objective Bounds      |     Work
 Expl Unexpl |  Obj  Depth IntInf | Incumbent    BestBd   Gap | It/Node Time

     0     0     cutoff    0       492.70312  492.70312  0.00%     -    0s

Explored 0 nodes (1 simplex iterations) in 0.01 seconds
Thread count was 8 (of 8 available processors)

Solution count 1: 492.703 

Optimal solution found (tolerance 1.00e-04)
Best objective 4.927031250000e+02, best bound 4.927031250000e+02, gap 0.0000%
---------------------------------------------------------------------------

Multi-objectives: optimize objective 4 (P4_mem_load) ...
---------------------------------------------------------------------------


Loaded user MIP start with objective 492.703

Presolve removed 11 rows and 16 columns
Presolve time: 0.00s
Presolved: 3 rows, 4 columns, 8 nonzeros
Variable types: 2 continuous, 2 integer (2 binary)

Root relaxation: objective 2.463516e+02, 1 iterations, 0.00 seconds

    Nodes    |    Current Node    |     Objective Bounds      |     Work
 Expl Unexpl |  Obj  Depth IntInf | Incumbent    BestBd   Gap | It/Node Time

     0     0  246.35156    0    1  492.70312  246.35156  50.0%     -    0s
H    0     0                     424.7343750  246.35156  42.0%     -    0s
     0     0  246.35156    0    1  424.73438  246.35156  42.0%     -    0s

Explored 1 nodes (1 simplex iterations) in 0.01 seconds
Thread count was 8 (of 8 available processors)

Solution count 2: 424.734 492.703 

Optimal solution found (tolerance 1.00e-04)
Best objective 4.247343750000e+02, best bound 4.247343750000e+02, gap 0.0000%

---------------------------------------------------------------------------
Multi-objectives: solved in 0.01 seconds, solution count 4

Model optimize took: 0.007736921310424805 seconds
--------------------------------------------------

Solution quality statistics for model UnivmonGreedy :
  Maximum violation:
    Bound       : 0.00000000e+00
    Constraint  : 0.00000000e+00
    Integrality : 0.00000000e+00

Sketch (0) (cm: eps0: 7.500000000000001e-05, del0: 0.05, min_mem: 141.578125)
Par: 1, Rows: 3
(0.000,0)    (0.000,3)    (1.000,2)    (0.000,1)    
Total frac: 1.000

Sketch (1) (cm: eps0: 1.25e-06, del0: 0.05, min_mem: 8494.6328125)
Par: 1, Rows: 3
(0.000,0)    (0.000,3)    (0.000,2)    (1.000,1)    
Total frac: 1.000

Sketch (2) (cm: eps0: 0.000625, del0: 0.025, min_mem: 16.9921875)
Par: 1, Rows: 4
(0.000,1)    (1.000,3)    (0.000,0)    (0.000,2)    
Total frac: 1.000

Device (0) CPU_1:
Rows total: 0.0
Mem total: 0.0

Device (1) CPU_2:
Rows total: 3.0
Mem total: 25483.8984375

Device (2) P4_1:
Rows total: 3.0
Mem total: 424.734375

Device (3) P4_2:
Rows total: 4.0
Mem total: 67.96875
--------------------------------------------------
Changed value of parameter NonConvex to 2
   Prev: -1  Min: -1  Max: 2  Default: -1
Changed value of parameter NonConvex to 2
   Prev: -1  Min: -1  Max: 2  Default: -1

Throughput: 48.555141506729 Mpps, ns per packet: 20.595141296445718
Resources: 95.12547588348389
Used Cores: 8.0, Total CPUS: 2, Switch Memory: 492.703125

Sketch (0) (cm: eps0: 7.500000000000001e-05, del0: 0.05, min_mem: 141.578125)
Par: 1, Rows: 3
(0.000,0)    (0.000,3)    (1.000,2)    (0.000,1)    
Total frac: 1.000

Sketch (1) (cm: eps0: 1.25e-06, del0: 0.05, min_mem: 8494.6328125)
Par: 1, Rows: 3
(0.000,0)    (0.000,3)    (0.000,2)    (1.000,1)    
Total frac: 1.000

Sketch (2) (cm: eps0: 0.000625, del0: 0.025, min_mem: 16.9921875)
Par: 1, Rows: 4
(0.000,1)    (1.000,3)    (0.000,0)    (0.000,2)    
Total frac: 1.000

Device (0) CPU_1:
cores_sketch: 0.0, cores_dpdk: 2.0
Rows total: 0
Mem total: 0.0
Throughput: 55.99439742457172

Device (1) CPU_2:
cores_sketch: 4.0, cores_dpdk: 2.0
Rows total: 3.0
Mem total: 25483.8984375
Throughput: 48.555141506729

Device (2) P4_1:
Rows total: 3.0
Mem total: 424.734375
Throughput: 148.0

Device (3) P4_2:
Rows total: 4.0
Mem total: 67.96875
Throughput: 148.0
--------------------------------------------------
Function: MIP.solve took 0.03614044189453125 seconds
Function: solve took 0.03650164604187012 seconds
